weniger-krumme-touren/beispiele/random/30/303.txt.solution
[26, 12, 11, 10, 9, 8, 7, 6, 5, 4, 3, 2, 1, 0, 29, 16, 17, 19, 23, 22, 21, 20, 24, 25, 18, 15, 14, 28, 27, 13]