weniger-krumme-touren/mip/correct cuts/303.log
Starting solution of the Linear programming relaxation problem using Primal Simplex

Coin0506I Presolve 9261 (-9230) rows, 465 (0) columns and 19390 (-18460) elements
Clp1000I sum of infeasibilities 1.64099e-05 - average 1.77194e-09, 288 fixed columns
Coin0506I Presolve 1077 (-8184) rows, 177 (-288) columns and 2446 (-16944) elements
Clp0006I 0  Obj 646.61408 Primal inf 4.4343804e-06 (3) Dual inf 1.4000001e+09 (160)
Clp0029I End of values pass after 177 iterations
Clp0014I Perturbing problem by 0.001% of 1.0000001 - largest nonzero change 2.9914801e-05 ( 0.0014957401%) - largest zero change 2.8167904e-05
Clp0000I Optimal - objective value 645.59716
Clp0000I Optimal - objective value 645.59716
Coin0511I After Postsolve, objective 645.59716, infeasibilities - dual 0 (0), primal 0 (0)
Clp0006I 0  Obj 645.59716
Clp0000I Optimal - objective value 645.59716
Clp0000I Optimal - objective value 645.59716
Clp0000I Optimal - objective value 645.59716
Coin0511I After Postsolve, objective 645.59716, infeasibilities - dual 0 (0), primal 0 (0)
Clp0032I Optimal objective 645.597159 - 0 iterations time 0.302, Presolve 0.01, Idiot 0.29

Starting MIP optimization
Modell wird erstellt...
Suche Startlösung...
None
Suche optimale Lösung...
OptimizationStatus.INFEASIBLE
C:\Users\Philip\Documents\programmieren\python\bwinf41-2\weniger-krumme-touren\beispiele\random\30\303.txt
Startlösung ist optimal!
Cbc0045I MIPStart provided solution with cost 671.461
Cbc0012I Integer solution of 671.46149 found by Reduced search after 0 iterations and 0 nodes (0.05 seconds)
Cbc0013I At root node, 0 cuts changed objective from 645.59716 to 645.59716 in 1 passes
Cbc0014I Cut generator 0 (LazyConstraints) - 0 row cuts average 0.0 elements, 0 column cuts (0 active)  in 0.021 seconds - new frequency is 1
Cbc0014I Cut generator 1 (Probing) - 0 row cuts average 0.0 elements, 0 column cuts (0 active)  in 0.000 seconds - new frequency is -100
Cbc0014I Cut generator 2 (Gomory) - 0 row cuts average 0.0 elements, 0 column cuts (0 active)  in 0.000 seconds - new frequency is -100
Cbc0014I Cut generator 3 (Knapsack) - 0 row cuts average 0.0 elements, 0 column cuts (0 active)  in 0.000 seconds - new frequency is -100
Cbc0014I Cut generator 4 (MixedIntegerRounding2) - 0 row cuts average 0.0 elements, 0 column cuts (0 active)  in 0.000 seconds - new frequency is -100
Cbc0014I Cut generator 5 (FlowCover) - 0 row cuts average 0.0 elements, 0 column cuts (0 active)  in 0.000 seconds - new frequency is -100
Cbc0014I Cut generator 6 (TwoMirCuts) - 0 row cuts average 0.0 elements, 0 column cuts (0 active)  in 0.000 seconds - new frequency is -100
Cbc0014I Cut generator 7 (ZeroHalf) - 0 row cuts average 0.0 elements, 0 column cuts (0 active)  in 0.000 seconds - new frequency is -100
Cbc0001I Search completed - best objective 671.4614898455773, took 128 iterations and 2 nodes (0.17 seconds)
Cbc0032I Strong branching done 32 times (423 iterations), fathomed 2 nodes and fixed 0 variables
Cbc0035I Maximum depth 0, 390 variables fixed on reduced cost
Total time (CPU seconds):       0.21   (Wallclock seconds):       0.21

